p cnf 41 117
a 8 15 0
e 1 2 3 4 5 6 7 9 10 11 12 13 14 16 17 18 19 20 21 22 23 24 25 26 27 28 29 30 31 32 33 34 35 36 37 38 39 40 41 0
-4 -2 0
-4 -3 0
2 3 4 0
-5 3 0
-5 -3 0
-4 -5 -6 0
4 5 -6 0
-4 5 6 0
4 -5 6 0
-7 -1 0
-7 6 0
1 -6 7 0
10 8 0
10 9 0
-8 -9 -10 0
1 6 -11 0
-1 -6 -11 0
1 -6 11 0
-1 6 11 0
-12 -10 0
-12 -11 0
10 11 12 0
13 7 0
13 -12 0
-7 12 -13 0
15 -3 0
15 14 0
3 -14 -15 0
-17 15 0
-17 -16 0
-15 16 17 0
13 -17 -18 0
-13 17 -18 0
13 17 18 0
-13 -17 18 0
-16 19 -20 0
16 -19 -20 0
-16 -19 20 0
16 19 20 0
-21 -20 0
-21 4 0
20 -4 21 0
22 14 0
22 -19 0
-14 19 -22 0
-8 16 -23 0
8 -16 -23 0
-8 -16 23 0
8 16 23 0
24 23 0
24 -20 0
-23 20 -24 0
25 -22 0
25 24 0
22 -24 -25 0
26 -21 0
26 -25 0
21 25 -26 0
28 4 0
28 -27 0
-4 27 -28 0
4 3 -29 0
-4 -3 -29 0
4 -3 29 0
-4 3 29 0
-30 14 0
-30 29 0
-14 -29 30 0
-28 30 -31 0
28 -30 -31 0
-28 -30 31 0
28 30 31 0
-26 31 -32 0
26 -31 -32 0
-26 -31 32 0
26 31 32 0
3 -15 -33 0
-3 15 -33 0
3 15 33 0
-3 -15 33 0
34 3 0
34 33 0
-3 -33 -34 0
-35 -34 0
-35 -4 0
34 4 35 0
-33 35 -36 0
33 -35 -36 0
-33 -35 36 0
33 35 36 0
-38 -37 0
-38 6 0
37 -6 38 0
36 -38 -39 0
-36 38 -39 0
36 38 39 0
-36 -38 39 0
32 39 -40 0
-32 -39 -40 0
32 -39 40 0
-32 39 40 0
18 -40 -41 0
-18 40 -41 0
18 40 41 0
-18 -40 41 0
-5 35 19 12 -37 0
-20 34 32 0
27 -15 -7 22 41 0
-1 24 34 -9 25 22 0
-34 -30 -11 -26 -39 0
41 -4 25 -5 30 36 0
18 -7 17 -3 14 -36 0
4 35 -9 5 3 0
1 -16 39 13 -10 30 25 0
37 9 -35 0
-37 -6 -29 -11 24 35 0
41 0
